; benchmark generated from python API
(set-info :status unknown)
(declare-fun cell_1_1 () Int)
(declare-fun cell_1_6 () Int)
(declare-fun cell_2_3 () Int)
(declare-fun cell_2_4 () Int)
(declare-fun cell_3_7 () Int)
(declare-fun cell_4_2 () Int)
(declare-fun cell_5_4 () Int)
(declare-fun cell_6_8 () Int)
(declare-fun cell_7_9 () Int)
(declare-fun cell_8_5 () Int)
(declare-fun cell_9_1 () Int)
(declare-fun cell_2_1 () Int)
(declare-fun cell_3_1 () Int)
(declare-fun cell_4_1 () Int)
(declare-fun cell_5_1 () Int)
(declare-fun cell_6_1 () Int)
(declare-fun cell_7_1 () Int)
(declare-fun cell_8_1 () Int)
(declare-fun cell_1_2 () Int)
(declare-fun cell_2_2 () Int)
(declare-fun cell_3_2 () Int)
(declare-fun cell_5_2 () Int)
(declare-fun cell_6_2 () Int)
(declare-fun cell_7_2 () Int)
(declare-fun cell_8_2 () Int)
(declare-fun cell_9_2 () Int)
(declare-fun cell_1_3 () Int)
(declare-fun cell_3_3 () Int)
(declare-fun cell_4_3 () Int)
(declare-fun cell_5_3 () Int)
(declare-fun cell_6_3 () Int)
(declare-fun cell_7_3 () Int)
(declare-fun cell_8_3 () Int)
(declare-fun cell_9_3 () Int)
(declare-fun cell_1_4 () Int)
(declare-fun cell_3_4 () Int)
(declare-fun cell_4_4 () Int)
(declare-fun cell_6_4 () Int)
(declare-fun cell_7_4 () Int)
(declare-fun cell_8_4 () Int)
(declare-fun cell_9_4 () Int)
(declare-fun cell_1_5 () Int)
(declare-fun cell_2_5 () Int)
(declare-fun cell_3_5 () Int)
(declare-fun cell_4_5 () Int)
(declare-fun cell_5_5 () Int)
(declare-fun cell_6_5 () Int)
(declare-fun cell_7_5 () Int)
(declare-fun cell_9_5 () Int)
(declare-fun cell_2_6 () Int)
(declare-fun cell_3_6 () Int)
(declare-fun cell_4_6 () Int)
(declare-fun cell_5_6 () Int)
(declare-fun cell_6_6 () Int)
(declare-fun cell_7_6 () Int)
(declare-fun cell_8_6 () Int)
(declare-fun cell_9_6 () Int)
(declare-fun cell_1_7 () Int)
(declare-fun cell_2_7 () Int)
(declare-fun cell_4_7 () Int)
(declare-fun cell_5_7 () Int)
(declare-fun cell_6_7 () Int)
(declare-fun cell_7_7 () Int)
(declare-fun cell_8_7 () Int)
(declare-fun cell_9_7 () Int)
(declare-fun cell_1_8 () Int)
(declare-fun cell_2_8 () Int)
(declare-fun cell_3_8 () Int)
(declare-fun cell_4_8 () Int)
(declare-fun cell_5_8 () Int)
(declare-fun cell_7_8 () Int)
(declare-fun cell_8_8 () Int)
(declare-fun cell_9_8 () Int)
(declare-fun cell_1_9 () Int)
(declare-fun cell_2_9 () Int)
(declare-fun cell_3_9 () Int)
(declare-fun cell_4_9 () Int)
(declare-fun cell_5_9 () Int)
(declare-fun cell_6_9 () Int)
(declare-fun cell_8_9 () Int)
(declare-fun cell_9_9 () Int)
(assert
 (= cell_1_1 2))
(assert
 (= cell_1_6 1))
(assert
 (= cell_2_3 1))
(assert
 (= cell_2_4 2))
(assert
 (= cell_3_7 1))
(assert
 (= cell_4_2 1))
(assert
 (= cell_5_4 1))
(assert
 (= cell_6_8 1))
(assert
 (= cell_7_9 1))
(assert
 (= cell_8_5 1))
(assert
 (= cell_9_1 1))
(assert
 (let (($x5283 (= cell_1_1 2)))
 (or (= cell_1_1 1) $x5283 (= cell_1_1 3) (= cell_1_1 4) (= cell_1_1 5) (= cell_1_1 6) (= cell_1_1 7) (= cell_1_1 8) (= cell_1_1 9))))
(assert
 (let (($x78 (= cell_2_1 9)))
 (let (($x1732 (= cell_2_1 8)))
 (let (($x8201 (= cell_2_1 7)))
 (let (($x5218 (= cell_2_1 6)))
 (let (($x3021 (= cell_2_1 5)))
 (let (($x3798 (= cell_2_1 4)))
 (let (($x418 (= cell_2_1 3)))
 (let (($x9000 (= cell_2_1 2)))
 (let (($x1673 (= cell_2_1 1)))
 (or $x1673 $x9000 $x418 $x3798 $x3021 $x5218 $x8201 $x1732 $x78)))))))))))
(assert
 (let (($x2516 (= cell_3_1 9)))
 (let (($x9891 (= cell_3_1 8)))
 (let (($x4615 (= cell_3_1 7)))
 (let (($x327 (= cell_3_1 6)))
 (let (($x4201 (= cell_3_1 5)))
 (let (($x9565 (= cell_3_1 4)))
 (let (($x5544 (= cell_3_1 3)))
 (let (($x10144 (= cell_3_1 2)))
 (let (($x4889 (= cell_3_1 1)))
 (or $x4889 $x10144 $x5544 $x9565 $x4201 $x327 $x4615 $x9891 $x2516)))))))))))
(assert
 (let (($x3823 (= cell_4_1 9)))
 (let (($x5890 (= cell_4_1 8)))
 (let (($x7192 (= cell_4_1 7)))
 (let (($x5744 (= cell_4_1 6)))
 (let (($x551 (= cell_4_1 5)))
 (let (($x9557 (= cell_4_1 4)))
 (let (($x4917 (= cell_4_1 3)))
 (let (($x7877 (= cell_4_1 2)))
 (let (($x10109 (= cell_4_1 1)))
 (or $x10109 $x7877 $x4917 $x9557 $x551 $x5744 $x7192 $x5890 $x3823)))))))))))
(assert
 (let (($x6451 (= cell_5_1 9)))
 (let (($x4424 (= cell_5_1 8)))
 (let (($x6567 (= cell_5_1 7)))
 (let (($x1000 (= cell_5_1 6)))
 (let (($x7315 (= cell_5_1 5)))
 (let (($x6071 (= cell_5_1 4)))
 (let (($x3299 (= cell_5_1 3)))
 (let (($x8330 (= cell_5_1 2)))
 (let (($x982 (= cell_5_1 1)))
 (or $x982 $x8330 $x3299 $x6071 $x7315 $x1000 $x6567 $x4424 $x6451)))))))))))
(assert
 (let (($x4311 (= cell_6_1 9)))
 (let (($x5467 (= cell_6_1 8)))
 (let (($x10078 (= cell_6_1 7)))
 (let (($x6332 (= cell_6_1 6)))
 (let (($x5478 (= cell_6_1 5)))
 (let (($x5651 (= cell_6_1 4)))
 (let (($x6266 (= cell_6_1 3)))
 (let (($x2260 (= cell_6_1 2)))
 (let (($x2001 (= cell_6_1 1)))
 (or $x2001 $x2260 $x6266 $x5651 $x5478 $x6332 $x10078 $x5467 $x4311)))))))))))
(assert
 (let (($x5522 (= cell_7_1 9)))
 (let (($x2763 (= cell_7_1 8)))
 (let (($x5907 (= cell_7_1 7)))
 (let (($x4347 (= cell_7_1 6)))
 (let (($x3087 (= cell_7_1 5)))
 (let (($x4267 (= cell_7_1 4)))
 (let (($x3029 (= cell_7_1 3)))
 (let (($x5706 (= cell_7_1 2)))
 (let (($x3197 (= cell_7_1 1)))
 (or $x3197 $x5706 $x3029 $x4267 $x3087 $x4347 $x5907 $x2763 $x5522)))))))))))
(assert
 (let (($x5948 (= cell_8_1 9)))
 (let (($x10282 (= cell_8_1 8)))
 (let (($x4069 (= cell_8_1 7)))
 (let (($x5946 (= cell_8_1 6)))
 (let (($x914 (= cell_8_1 5)))
 (let (($x2231 (= cell_8_1 4)))
 (let (($x5919 (= cell_8_1 3)))
 (let (($x5083 (= cell_8_1 2)))
 (let (($x1757 (= cell_8_1 1)))
 (or $x1757 $x5083 $x5919 $x2231 $x914 $x5946 $x4069 $x10282 $x5948)))))))))))
(assert
 (let (($x6857 (= cell_9_1 1)))
 (or $x6857 (= cell_9_1 2) (= cell_9_1 3) (= cell_9_1 4) (= cell_9_1 5) (= cell_9_1 6) (= cell_9_1 7) (= cell_9_1 8) (= cell_9_1 9))))
(assert
 (let (($x2569 (= cell_1_2 9)))
 (let (($x9797 (= cell_1_2 8)))
 (let (($x7837 (= cell_1_2 7)))
 (let (($x2469 (= cell_1_2 6)))
 (let (($x3178 (= cell_1_2 5)))
 (let (($x146 (= cell_1_2 4)))
 (let (($x3279 (= cell_1_2 3)))
 (let (($x5580 (= cell_1_2 2)))
 (let (($x8209 (= cell_1_2 1)))
 (or $x8209 $x5580 $x3279 $x146 $x3178 $x2469 $x7837 $x9797 $x2569)))))))))))
(assert
 (let (($x834 (= cell_2_2 9)))
 (let (($x8874 (= cell_2_2 8)))
 (let (($x2898 (= cell_2_2 7)))
 (let (($x5665 (= cell_2_2 6)))
 (let (($x8913 (= cell_2_2 5)))
 (let (($x5188 (= cell_2_2 4)))
 (let (($x8663 (= cell_2_2 3)))
 (let (($x193 (= cell_2_2 2)))
 (let (($x8978 (= cell_2_2 1)))
 (or $x8978 $x193 $x8663 $x5188 $x8913 $x5665 $x2898 $x8874 $x834)))))))))))
(assert
 (let (($x821 (= cell_3_2 9)))
 (let (($x9099 (= cell_3_2 8)))
 (let (($x868 (= cell_3_2 7)))
 (let (($x4310 (= cell_3_2 6)))
 (let (($x838 (= cell_3_2 5)))
 (let (($x9537 (= cell_3_2 4)))
 (let (($x7446 (= cell_3_2 3)))
 (let (($x3324 (= cell_3_2 2)))
 (let (($x6926 (= cell_3_2 1)))
 (or $x6926 $x3324 $x7446 $x9537 $x838 $x4310 $x868 $x9099 $x821)))))))))))
(assert
 (let (($x10142 (= cell_4_2 1)))
 (or $x10142 (= cell_4_2 2) (= cell_4_2 3) (= cell_4_2 4) (= cell_4_2 5) (= cell_4_2 6) (= cell_4_2 7) (= cell_4_2 8) (= cell_4_2 9))))
(assert
 (let (($x7490 (= cell_5_2 9)))
 (let (($x7 (= cell_5_2 8)))
 (let (($x3383 (= cell_5_2 7)))
 (let (($x2596 (= cell_5_2 6)))
 (let (($x3389 (= cell_5_2 5)))
 (let (($x5142 (= cell_5_2 4)))
 (let (($x2287 (= cell_5_2 3)))
 (let (($x3980 (= cell_5_2 2)))
 (let (($x8161 (= cell_5_2 1)))
 (or $x8161 $x3980 $x2287 $x5142 $x3389 $x2596 $x3383 $x7 $x7490)))))))))))
(assert
 (let (($x7148 (= cell_6_2 9)))
 (let (($x1295 (= cell_6_2 8)))
 (let (($x369 (= cell_6_2 7)))
 (let (($x303 (= cell_6_2 6)))
 (let (($x236 (= cell_6_2 5)))
 (let (($x6131 (= cell_6_2 4)))
 (let (($x974 (= cell_6_2 3)))
 (let (($x8966 (= cell_6_2 2)))
 (let (($x4825 (= cell_6_2 1)))
 (or $x4825 $x8966 $x974 $x6131 $x236 $x303 $x369 $x1295 $x7148)))))))))))
(assert
 (let (($x1499 (= cell_7_2 9)))
 (let (($x4387 (= cell_7_2 8)))
 (let (($x4701 (= cell_7_2 7)))
 (let (($x7965 (= cell_7_2 6)))
 (let (($x6381 (= cell_7_2 5)))
 (let (($x7316 (= cell_7_2 4)))
 (let (($x856 (= cell_7_2 3)))
 (let (($x8852 (= cell_7_2 2)))
 (let (($x8847 (= cell_7_2 1)))
 (or $x8847 $x8852 $x856 $x7316 $x6381 $x7965 $x4701 $x4387 $x1499)))))))))))
(assert
 (let (($x6724 (= cell_8_2 9)))
 (let (($x5306 (= cell_8_2 8)))
 (let (($x1353 (= cell_8_2 7)))
 (let (($x790 (= cell_8_2 6)))
 (let (($x796 (= cell_8_2 5)))
 (let (($x8067 (= cell_8_2 4)))
 (let (($x582 (= cell_8_2 3)))
 (let (($x9706 (= cell_8_2 2)))
 (let (($x9426 (= cell_8_2 1)))
 (or $x9426 $x9706 $x582 $x8067 $x796 $x790 $x1353 $x5306 $x6724)))))))))))
(assert
 (let (($x3181 (= cell_9_2 1)))
 (or $x3181 (= cell_9_2 2) (= cell_9_2 3) (= cell_9_2 4) (= cell_9_2 5) (= cell_9_2 6) (= cell_9_2 7) (= cell_9_2 8) (= cell_9_2 9))))
(assert
 (let (($x3138 (= cell_1_3 9)))
 (let (($x9410 (= cell_1_3 8)))
 (let (($x10037 (= cell_1_3 7)))
 (let (($x2312 (= cell_1_3 6)))
 (let (($x1838 (= cell_1_3 5)))
 (let (($x5757 (= cell_1_3 4)))
 (let (($x7387 (= cell_1_3 3)))
 (let (($x779 (= cell_1_3 2)))
 (let (($x3075 (= cell_1_3 1)))
 (or $x3075 $x779 $x7387 $x5757 $x1838 $x2312 $x10037 $x9410 $x3138)))))))))))
(assert
 (let (($x2175 (= cell_2_3 1)))
 (or $x2175 (= cell_2_3 2) (= cell_2_3 3) (= cell_2_3 4) (= cell_2_3 5) (= cell_2_3 6) (= cell_2_3 7) (= cell_2_3 8) (= cell_2_3 9))))
(assert
 (let (($x7555 (= cell_3_3 9)))
 (let (($x9561 (= cell_3_3 8)))
 (let (($x1346 (= cell_3_3 7)))
 (let (($x6187 (= cell_3_3 6)))
 (let (($x4687 (= cell_3_3 5)))
 (let (($x6538 (= cell_3_3 4)))
 (let (($x7595 (= cell_3_3 3)))
 (let (($x4896 (= cell_3_3 2)))
 (let (($x3076 (= cell_3_3 1)))
 (or $x3076 $x4896 $x7595 $x6538 $x4687 $x6187 $x1346 $x9561 $x7555)))))))))))
(assert
 (let (($x3564 (= cell_4_3 9)))
 (let (($x2601 (= cell_4_3 8)))
 (let (($x4316 (= cell_4_3 7)))
 (let (($x2947 (= cell_4_3 6)))
 (let (($x2136 (= cell_4_3 5)))
 (let (($x872 (= cell_4_3 4)))
 (let (($x4827 (= cell_4_3 3)))
 (let (($x5373 (= cell_4_3 2)))
 (let (($x4704 (= cell_4_3 1)))
 (or $x4704 $x5373 $x4827 $x872 $x2136 $x2947 $x4316 $x2601 $x3564)))))))))))
(assert
 (let (($x734 (= cell_5_3 9)))
 (let (($x451 (= cell_5_3 8)))
 (let (($x849 (= cell_5_3 7)))
 (let (($x926 (= cell_5_3 6)))
 (let (($x2686 (= cell_5_3 5)))
 (let (($x6251 (= cell_5_3 4)))
 (let (($x9079 (= cell_5_3 3)))
 (let (($x1199 (= cell_5_3 2)))
 (let (($x198 (= cell_5_3 1)))
 (or $x198 $x1199 $x9079 $x6251 $x2686 $x926 $x849 $x451 $x734)))))))))))
(assert
 (let (($x465 (= cell_6_3 9)))
 (let (($x3117 (= cell_6_3 8)))
 (let (($x7526 (= cell_6_3 7)))
 (let (($x5991 (= cell_6_3 6)))
 (let (($x6211 (= cell_6_3 5)))
 (let (($x6587 (= cell_6_3 4)))
 (let (($x8716 (= cell_6_3 3)))
 (let (($x2695 (= cell_6_3 2)))
 (let (($x1299 (= cell_6_3 1)))
 (or $x1299 $x2695 $x8716 $x6587 $x6211 $x5991 $x7526 $x3117 $x465)))))))))))
(assert
 (let (($x5714 (= cell_7_3 9)))
 (let (($x8170 (= cell_7_3 8)))
 (let (($x3136 (= cell_7_3 7)))
 (let (($x9474 (= cell_7_3 6)))
 (let (($x6634 (= cell_7_3 5)))
 (let (($x4932 (= cell_7_3 4)))
 (let (($x4391 (= cell_7_3 3)))
 (let (($x9641 (= cell_7_3 2)))
 (let (($x5691 (= cell_7_3 1)))
 (or $x5691 $x9641 $x4391 $x4932 $x6634 $x9474 $x3136 $x8170 $x5714)))))))))))
(assert
 (let (($x1204 (= cell_8_3 9)))
 (let (($x2786 (= cell_8_3 8)))
 (let (($x8457 (= cell_8_3 7)))
 (let (($x2181 (= cell_8_3 6)))
 (let (($x4027 (= cell_8_3 5)))
 (let (($x942 (= cell_8_3 4)))
 (let (($x5882 (= cell_8_3 3)))
 (let (($x3352 (= cell_8_3 2)))
 (let (($x4950 (= cell_8_3 1)))
 (or $x4950 $x3352 $x5882 $x942 $x4027 $x2181 $x8457 $x2786 $x1204)))))))))))
(assert
 (let (($x3061 (= cell_9_3 1)))
 (or $x3061 (= cell_9_3 2) (= cell_9_3 3) (= cell_9_3 4) (= cell_9_3 5) (= cell_9_3 6) (= cell_9_3 7) (= cell_9_3 8) (= cell_9_3 9))))
(assert
 (let (($x10087 (= cell_1_4 9)))
 (let (($x8442 (= cell_1_4 8)))
 (let (($x74 (= cell_1_4 7)))
 (let (($x5364 (= cell_1_4 6)))
 (let (($x5133 (= cell_1_4 5)))
 (let (($x5457 (= cell_1_4 4)))
 (let (($x7055 (= cell_1_4 3)))
 (let (($x763 (= cell_1_4 2)))
 (let (($x9859 (= cell_1_4 1)))
 (or $x9859 $x763 $x7055 $x5457 $x5133 $x5364 $x74 $x8442 $x10087)))))))))))
(assert
 (let (($x1560 (= cell_2_4 2)))
 (or (= cell_2_4 1) $x1560 (= cell_2_4 3) (= cell_2_4 4) (= cell_2_4 5) (= cell_2_4 6) (= cell_2_4 7) (= cell_2_4 8) (= cell_2_4 9))))
(assert
 (let (($x8430 (= cell_3_4 9)))
 (let (($x6312 (= cell_3_4 8)))
 (let (($x4616 (= cell_3_4 7)))
 (let (($x8234 (= cell_3_4 6)))
 (let (($x5431 (= cell_3_4 5)))
 (let (($x3710 (= cell_3_4 4)))
 (let (($x7972 (= cell_3_4 3)))
 (let (($x8506 (= cell_3_4 2)))
 (let (($x4642 (= cell_3_4 1)))
 (or $x4642 $x8506 $x7972 $x3710 $x5431 $x8234 $x4616 $x6312 $x8430)))))))))))
(assert
 (let (($x1458 (= cell_4_4 9)))
 (let (($x2228 (= cell_4_4 8)))
 (let (($x248 (= cell_4_4 7)))
 (let (($x5807 (= cell_4_4 6)))
 (let (($x986 (= cell_4_4 5)))
 (let (($x4127 (= cell_4_4 4)))
 (let (($x8841 (= cell_4_4 3)))
 (let (($x4105 (= cell_4_4 2)))
 (let (($x5117 (= cell_4_4 1)))
 (or $x5117 $x4105 $x8841 $x4127 $x986 $x5807 $x248 $x2228 $x1458)))))))))))
(assert
 (let (($x6433 (= cell_5_4 1)))
 (or $x6433 (= cell_5_4 2) (= cell_5_4 3) (= cell_5_4 4) (= cell_5_4 5) (= cell_5_4 6) (= cell_5_4 7) (= cell_5_4 8) (= cell_5_4 9))))
(assert
 (let (($x7827 (= cell_6_4 9)))
 (let (($x4728 (= cell_6_4 8)))
 (let (($x1643 (= cell_6_4 7)))
 (let (($x10052 (= cell_6_4 6)))
 (let (($x2624 (= cell_6_4 5)))
 (let (($x9585 (= cell_6_4 4)))
 (let (($x3900 (= cell_6_4 3)))
 (let (($x6653 (= cell_6_4 2)))
 (let (($x8039 (= cell_6_4 1)))
 (or $x8039 $x6653 $x3900 $x9585 $x2624 $x10052 $x1643 $x4728 $x7827)))))))))))
(assert
 (let (($x6075 (= cell_7_4 9)))
 (let (($x174 (= cell_7_4 8)))
 (let (($x9297 (= cell_7_4 7)))
 (let (($x5748 (= cell_7_4 6)))
 (let (($x355 (= cell_7_4 5)))
 (let (($x8315 (= cell_7_4 4)))
 (let (($x6453 (= cell_7_4 3)))
 (let (($x3825 (= cell_7_4 2)))
 (let (($x6096 (= cell_7_4 1)))
 (or $x6096 $x3825 $x6453 $x8315 $x355 $x5748 $x9297 $x174 $x6075)))))))))))
(assert
 (let (($x7747 (= cell_8_4 9)))
 (let (($x3055 (= cell_8_4 8)))
 (let (($x1541 (= cell_8_4 7)))
 (let (($x8730 (= cell_8_4 6)))
 (let (($x4890 (= cell_8_4 5)))
 (let (($x8950 (= cell_8_4 4)))
 (let (($x2019 (= cell_8_4 3)))
 (let (($x1349 (= cell_8_4 2)))
 (let (($x5228 (= cell_8_4 1)))
 (or $x5228 $x1349 $x2019 $x8950 $x4890 $x8730 $x1541 $x3055 $x7747)))))))))))
(assert
 (let (($x5405 (= cell_9_4 2)))
 (let (($x2209 (= cell_9_4 1)))
 (or $x2209 $x5405 (= cell_9_4 3) (= cell_9_4 4) (= cell_9_4 5) (= cell_9_4 6) (= cell_9_4 7) (= cell_9_4 8) (= cell_9_4 9)))))
(assert
 (let (($x5745 (= cell_1_5 9)))
 (let (($x5461 (= cell_1_5 8)))
 (let (($x8216 (= cell_1_5 7)))
 (let (($x2506 (= cell_1_5 6)))
 (let (($x7012 (= cell_1_5 5)))
 (let (($x5894 (= cell_1_5 4)))
 (let (($x4469 (= cell_1_5 3)))
 (let (($x9772 (= cell_1_5 2)))
 (let (($x3883 (= cell_1_5 1)))
 (or $x3883 $x9772 $x4469 $x5894 $x7012 $x2506 $x8216 $x5461 $x5745)))))))))))
(assert
 (let (($x6145 (= cell_2_5 9)))
 (let (($x141 (= cell_2_5 8)))
 (let (($x5775 (= cell_2_5 7)))
 (let (($x5190 (= cell_2_5 6)))
 (let (($x4526 (= cell_2_5 5)))
 (let (($x9860 (= cell_2_5 4)))
 (let (($x8496 (= cell_2_5 3)))
 (let (($x842 (= cell_2_5 2)))
 (let (($x597 (= cell_2_5 1)))
 (or $x597 $x842 $x8496 $x9860 $x4526 $x5190 $x5775 $x141 $x6145)))))))))))
(assert
 (let (($x3912 (= cell_3_5 9)))
 (let (($x8981 (= cell_3_5 8)))
 (let (($x4476 (= cell_3_5 7)))
 (let (($x6268 (= cell_3_5 6)))
 (let (($x7706 (= cell_3_5 5)))
 (let (($x9047 (= cell_3_5 4)))
 (let (($x7485 (= cell_3_5 3)))
 (let (($x4477 (= cell_3_5 2)))
 (let (($x1178 (= cell_3_5 1)))
 (or $x1178 $x4477 $x7485 $x9047 $x7706 $x6268 $x4476 $x8981 $x3912)))))))))))
(assert
 (let (($x2607 (= cell_4_5 9)))
 (let (($x1887 (= cell_4_5 8)))
 (let (($x5578 (= cell_4_5 7)))
 (let (($x7426 (= cell_4_5 6)))
 (let (($x7150 (= cell_4_5 5)))
 (let (($x8682 (= cell_4_5 4)))
 (let (($x9917 (= cell_4_5 3)))
 (let (($x6840 (= cell_4_5 2)))
 (let (($x6113 (= cell_4_5 1)))
 (or $x6113 $x6840 $x9917 $x8682 $x7150 $x7426 $x5578 $x1887 $x2607)))))))))))
(assert
 (let (($x4116 (= cell_5_5 9)))
 (let (($x2267 (= cell_5_5 8)))
 (let (($x2338 (= cell_5_5 7)))
 (let (($x8902 (= cell_5_5 6)))
 (let (($x3621 (= cell_5_5 5)))
 (let (($x4881 (= cell_5_5 4)))
 (let (($x4386 (= cell_5_5 3)))
 (let (($x2855 (= cell_5_5 2)))
 (let (($x9910 (= cell_5_5 1)))
 (or $x9910 $x2855 $x4386 $x4881 $x3621 $x8902 $x2338 $x2267 $x4116)))))))))))
(assert
 (let (($x1238 (= cell_6_5 9)))
 (let (($x8589 (= cell_6_5 8)))
 (let (($x2867 (= cell_6_5 7)))
 (let (($x2085 (= cell_6_5 6)))
 (let (($x2637 (= cell_6_5 5)))
 (let (($x1010 (= cell_6_5 4)))
 (let (($x562 (= cell_6_5 3)))
 (let (($x6388 (= cell_6_5 2)))
 (let (($x8679 (= cell_6_5 1)))
 (or $x8679 $x6388 $x562 $x1010 $x2637 $x2085 $x2867 $x8589 $x1238)))))))))))
(assert
 (let (($x9091 (= cell_7_5 9)))
 (let (($x1685 (= cell_7_5 8)))
 (let (($x4958 (= cell_7_5 7)))
 (let (($x4862 (= cell_7_5 6)))
 (let (($x3809 (= cell_7_5 5)))
 (let (($x3985 (= cell_7_5 4)))
 (let (($x2243 (= cell_7_5 3)))
 (let (($x438 (= cell_7_5 2)))
 (let (($x1743 (= cell_7_5 1)))
 (or $x1743 $x438 $x2243 $x3985 $x3809 $x4862 $x4958 $x1685 $x9091)))))))))))
(assert
 (let (($x4915 (= cell_8_5 1)))
 (or $x4915 (= cell_8_5 2) (= cell_8_5 3) (= cell_8_5 4) (= cell_8_5 5) (= cell_8_5 6) (= cell_8_5 7) (= cell_8_5 8) (= cell_8_5 9))))
(assert
 (let (($x4629 (= cell_9_5 1)))
 (or $x4629 (= cell_9_5 2) (= cell_9_5 3) (= cell_9_5 4) (= cell_9_5 5) (= cell_9_5 6) (= cell_9_5 7) (= cell_9_5 8) (= cell_9_5 9))))
(assert
 (let (($x8151 (= cell_1_6 1)))
 (or $x8151 (= cell_1_6 2) (= cell_1_6 3) (= cell_1_6 4) (= cell_1_6 5) (= cell_1_6 6) (= cell_1_6 7) (= cell_1_6 8) (= cell_1_6 9))))
(assert
 (let (($x5575 (= cell_2_6 9)))
 (let (($x1150 (= cell_2_6 8)))
 (let (($x1717 (= cell_2_6 7)))
 (let (($x10202 (= cell_2_6 6)))
 (let (($x6036 (= cell_2_6 5)))
 (let (($x2250 (= cell_2_6 4)))
 (let (($x3173 (= cell_2_6 3)))
 (let (($x6023 (= cell_2_6 2)))
 (let (($x7678 (= cell_2_6 1)))
 (or $x7678 $x6023 $x3173 $x2250 $x6036 $x10202 $x1717 $x1150 $x5575)))))))))))
(assert
 (let (($x2822 (= cell_3_6 9)))
 (let (($x8855 (= cell_3_6 8)))
 (let (($x9979 (= cell_3_6 7)))
 (let (($x8056 (= cell_3_6 6)))
 (let (($x8621 (= cell_3_6 5)))
 (let (($x4198 (= cell_3_6 4)))
 (let (($x7627 (= cell_3_6 3)))
 (let (($x1880 (= cell_3_6 2)))
 (let (($x7211 (= cell_3_6 1)))
 (or $x7211 $x1880 $x7627 $x4198 $x8621 $x8056 $x9979 $x8855 $x2822)))))))))))
(assert
 (let (($x8078 (= cell_4_6 9)))
 (let (($x2290 (= cell_4_6 8)))
 (let (($x479 (= cell_4_6 7)))
 (let (($x1683 (= cell_4_6 6)))
 (let (($x3591 (= cell_4_6 5)))
 (let (($x2985 (= cell_4_6 4)))
 (let (($x9559 (= cell_4_6 3)))
 (let (($x8023 (= cell_4_6 2)))
 (let (($x6425 (= cell_4_6 1)))
 (or $x6425 $x8023 $x9559 $x2985 $x3591 $x1683 $x479 $x2290 $x8078)))))))))))
(assert
 (let (($x8333 (= cell_5_6 1)))
 (or $x8333 (= cell_5_6 2) (= cell_5_6 3) (= cell_5_6 4) (= cell_5_6 5) (= cell_5_6 6) (= cell_5_6 7) (= cell_5_6 8) (= cell_5_6 9))))
(assert
 (let (($x1906 (= cell_6_6 9)))
 (let (($x3863 (= cell_6_6 8)))
 (let (($x6156 (= cell_6_6 7)))
 (let (($x6022 (= cell_6_6 6)))
 (let (($x9131 (= cell_6_6 5)))
 (let (($x3538 (= cell_6_6 4)))
 (let (($x4595 (= cell_6_6 3)))
 (let (($x9956 (= cell_6_6 2)))
 (let (($x7050 (= cell_6_6 1)))
 (or $x7050 $x9956 $x4595 $x3538 $x9131 $x6022 $x6156 $x3863 $x1906)))))))))))
(assert
 (let (($x8176 (= cell_7_6 9)))
 (let (($x2344 (= cell_7_6 8)))
 (let (($x3327 (= cell_7_6 7)))
 (let (($x9513 (= cell_7_6 6)))
 (let (($x1232 (= cell_7_6 5)))
 (let (($x2934 (= cell_7_6 4)))
 (let (($x619 (= cell_7_6 3)))
 (let (($x1337 (= cell_7_6 2)))
 (let (($x8690 (= cell_7_6 1)))
 (or $x8690 $x1337 $x619 $x2934 $x1232 $x9513 $x3327 $x2344 $x8176)))))))))))
(assert
 (let (($x4176 (= cell_8_6 1)))
 (or $x4176 (= cell_8_6 2) (= cell_8_6 3) (= cell_8_6 4) (= cell_8_6 5) (= cell_8_6 6) (= cell_8_6 7) (= cell_8_6 8) (= cell_8_6 9))))
(assert
 (let (($x4654 (= cell_9_6 1)))
 (or $x4654 (= cell_9_6 2) (= cell_9_6 3) (= cell_9_6 4) (= cell_9_6 5) (= cell_9_6 6) (= cell_9_6 7) (= cell_9_6 8) (= cell_9_6 9))))
(assert
 (let (($x6863 (= cell_1_7 9)))
 (let (($x8141 (= cell_1_7 8)))
 (let (($x3924 (= cell_1_7 7)))
 (let (($x9260 (= cell_1_7 6)))
 (let (($x5022 (= cell_1_7 5)))
 (let (($x7562 (= cell_1_7 4)))
 (let (($x4299 (= cell_1_7 3)))
 (let (($x6501 (= cell_1_7 2)))
 (let (($x6875 (= cell_1_7 1)))
 (or $x6875 $x6501 $x4299 $x7562 $x5022 $x9260 $x3924 $x8141 $x6863)))))))))))
(assert
 (let (($x10041 (= cell_2_7 9)))
 (let (($x7079 (= cell_2_7 8)))
 (let (($x2810 (= cell_2_7 7)))
 (let (($x8632 (= cell_2_7 6)))
 (let (($x8905 (= cell_2_7 5)))
 (let (($x2053 (= cell_2_7 4)))
 (let (($x2767 (= cell_2_7 3)))
 (let (($x9325 (= cell_2_7 2)))
 (let (($x3167 (= cell_2_7 1)))
 (or $x3167 $x9325 $x2767 $x2053 $x8905 $x8632 $x2810 $x7079 $x10041)))))))))))
(assert
 (let (($x9571 (= cell_3_7 1)))
 (or $x9571 (= cell_3_7 2) (= cell_3_7 3) (= cell_3_7 4) (= cell_3_7 5) (= cell_3_7 6) (= cell_3_7 7) (= cell_3_7 8) (= cell_3_7 9))))
(assert
 (let (($x3265 (= cell_4_7 9)))
 (let (($x4650 (= cell_4_7 8)))
 (let (($x7833 (= cell_4_7 7)))
 (let (($x1228 (= cell_4_7 6)))
 (let (($x5289 (= cell_4_7 5)))
 (let (($x6162 (= cell_4_7 4)))
 (let (($x758 (= cell_4_7 3)))
 (let (($x9904 (= cell_4_7 2)))
 (let (($x1793 (= cell_4_7 1)))
 (or $x1793 $x9904 $x758 $x6162 $x5289 $x1228 $x7833 $x4650 $x3265)))))))))))
(assert
 (let (($x7335 (= cell_5_7 9)))
 (let (($x4245 (= cell_5_7 8)))
 (let (($x3387 (= cell_5_7 7)))
 (let (($x5796 (= cell_5_7 6)))
 (let (($x3691 (= cell_5_7 5)))
 (let (($x7366 (= cell_5_7 4)))
 (let (($x1164 (= cell_5_7 3)))
 (let (($x482 (= cell_5_7 2)))
 (let (($x890 (= cell_5_7 1)))
 (or $x890 $x482 $x1164 $x7366 $x3691 $x5796 $x3387 $x4245 $x7335)))))))))))
(assert
 (let (($x9025 (= cell_6_7 9)))
 (let (($x6446 (= cell_6_7 8)))
 (let (($x4043 (= cell_6_7 7)))
 (let (($x2130 (= cell_6_7 6)))
 (let (($x5876 (= cell_6_7 5)))
 (let (($x8487 (= cell_6_7 4)))
 (let (($x647 (= cell_6_7 3)))
 (let (($x10171 (= cell_6_7 2)))
 (let (($x7343 (= cell_6_7 1)))
 (or $x7343 $x10171 $x647 $x8487 $x5876 $x2130 $x4043 $x6446 $x9025)))))))))))
(assert
 (let (($x7613 (= cell_7_7 9)))
 (let (($x79 (= cell_7_7 8)))
 (let (($x6408 (= cell_7_7 7)))
 (let (($x8834 (= cell_7_7 6)))
 (let (($x6733 (= cell_7_7 5)))
 (let (($x4668 (= cell_7_7 4)))
 (let (($x3829 (= cell_7_7 3)))
 (let (($x3718 (= cell_7_7 2)))
 (let (($x8717 (= cell_7_7 1)))
 (or $x8717 $x3718 $x3829 $x4668 $x6733 $x8834 $x6408 $x79 $x7613)))))))))))
(assert
 (let (($x3058 (= cell_8_7 1)))
 (or $x3058 (= cell_8_7 2) (= cell_8_7 3) (= cell_8_7 4) (= cell_8_7 5) (= cell_8_7 6) (= cell_8_7 7) (= cell_8_7 8) (= cell_8_7 9))))
(assert
 (let (($x8104 (= cell_9_7 1)))
 (or $x8104 (= cell_9_7 2) (= cell_9_7 3) (= cell_9_7 4) (= cell_9_7 5) (= cell_9_7 6) (= cell_9_7 7) (= cell_9_7 8) (= cell_9_7 9))))
(assert
 (let (($x7619 (= cell_1_8 9)))
 (let (($x1570 (= cell_1_8 8)))
 (let (($x2904 (= cell_1_8 7)))
 (let (($x8561 (= cell_1_8 6)))
 (let (($x7470 (= cell_1_8 5)))
 (let (($x3812 (= cell_1_8 4)))
 (let (($x6450 (= cell_1_8 3)))
 (let (($x8507 (= cell_1_8 2)))
 (let (($x3022 (= cell_1_8 1)))
 (or $x3022 $x8507 $x6450 $x3812 $x7470 $x8561 $x2904 $x1570 $x7619)))))))))))
(assert
 (let (($x2220 (= cell_2_8 9)))
 (let (($x3263 (= cell_2_8 8)))
 (let (($x4771 (= cell_2_8 7)))
 (let (($x1547 (= cell_2_8 6)))
 (let (($x2576 (= cell_2_8 5)))
 (let (($x7768 (= cell_2_8 4)))
 (let (($x3632 (= cell_2_8 3)))
 (let (($x8741 (= cell_2_8 2)))
 (let (($x6030 (= cell_2_8 1)))
 (or $x6030 $x8741 $x3632 $x7768 $x2576 $x1547 $x4771 $x3263 $x2220)))))))))))
(assert
 (let (($x6927 (= cell_3_8 9)))
 (let (($x309 (= cell_3_8 8)))
 (let (($x9640 (= cell_3_8 7)))
 (let (($x7687 (= cell_3_8 6)))
 (let (($x6309 (= cell_3_8 5)))
 (let (($x2440 (= cell_3_8 4)))
 (let (($x6874 (= cell_3_8 3)))
 (let (($x6107 (= cell_3_8 2)))
 (let (($x264 (= cell_3_8 1)))
 (or $x264 $x6107 $x6874 $x2440 $x6309 $x7687 $x9640 $x309 $x6927)))))))))))
(assert
 (let (($x7432 (= cell_4_8 9)))
 (let (($x3639 (= cell_4_8 8)))
 (let (($x4292 (= cell_4_8 7)))
 (let (($x9198 (= cell_4_8 6)))
 (let (($x4583 (= cell_4_8 5)))
 (let (($x6395 (= cell_4_8 4)))
 (let (($x4111 (= cell_4_8 3)))
 (let (($x3839 (= cell_4_8 2)))
 (let (($x8493 (= cell_4_8 1)))
 (or $x8493 $x3839 $x4111 $x6395 $x4583 $x9198 $x4292 $x3639 $x7432)))))))))))
(assert
 (let (($x4076 (= cell_5_8 9)))
 (let (($x631 (= cell_5_8 8)))
 (let (($x8884 (= cell_5_8 7)))
 (let (($x1224 (= cell_5_8 6)))
 (let (($x1347 (= cell_5_8 5)))
 (let (($x1404 (= cell_5_8 4)))
 (let (($x1271 (= cell_5_8 3)))
 (let (($x529 (= cell_5_8 2)))
 (let (($x6647 (= cell_5_8 1)))
 (or $x6647 $x529 $x1271 $x1404 $x1347 $x1224 $x8884 $x631 $x4076)))))))))))
(assert
 (let (($x9969 (= cell_6_8 1)))
 (or $x9969 (= cell_6_8 2) (= cell_6_8 3) (= cell_6_8 4) (= cell_6_8 5) (= cell_6_8 6) (= cell_6_8 7) (= cell_6_8 8) (= cell_6_8 9))))
(assert
 (let (($x9809 (= cell_7_8 9)))
 (let (($x8051 (= cell_7_8 8)))
 (let (($x8190 (= cell_7_8 7)))
 (let (($x1065 (= cell_7_8 6)))
 (let (($x2966 (= cell_7_8 5)))
 (let (($x2740 (= cell_7_8 4)))
 (let (($x10121 (= cell_7_8 3)))
 (let (($x4752 (= cell_7_8 2)))
 (let (($x7995 (= cell_7_8 1)))
 (or $x7995 $x4752 $x10121 $x2740 $x2966 $x1065 $x8190 $x8051 $x9809)))))))))))
(assert
 (let (($x414 (= cell_8_8 1)))
 (or $x414 (= cell_8_8 2) (= cell_8_8 3) (= cell_8_8 4) (= cell_8_8 5) (= cell_8_8 6) (= cell_8_8 7) (= cell_8_8 8) (= cell_8_8 9))))
(assert
 (let (($x4487 (= cell_9_8 1)))
 (or $x4487 (= cell_9_8 2) (= cell_9_8 3) (= cell_9_8 4) (= cell_9_8 5) (= cell_9_8 6) (= cell_9_8 7) (= cell_9_8 8) (= cell_9_8 9))))
(assert
 (let (($x10055 (= cell_1_9 9)))
 (let (($x8452 (= cell_1_9 8)))
 (let (($x1557 (= cell_1_9 7)))
 (let (($x9433 (= cell_1_9 6)))
 (let (($x5332 (= cell_1_9 5)))
 (let (($x9443 (= cell_1_9 4)))
 (let (($x2964 (= cell_1_9 3)))
 (let (($x9001 (= cell_1_9 2)))
 (let (($x9290 (= cell_1_9 1)))
 (or $x9290 $x9001 $x2964 $x9443 $x5332 $x9433 $x1557 $x8452 $x10055)))))))))))
(assert
 (let (($x6956 (= cell_2_9 9)))
 (let (($x3527 (= cell_2_9 8)))
 (let (($x3102 (= cell_2_9 7)))
 (let (($x2103 (= cell_2_9 6)))
 (let (($x8294 (= cell_2_9 5)))
 (let (($x7838 (= cell_2_9 4)))
 (let (($x7329 (= cell_2_9 3)))
 (let (($x5465 (= cell_2_9 2)))
 (let (($x936 (= cell_2_9 1)))
 (or $x936 $x5465 $x7329 $x7838 $x8294 $x2103 $x3102 $x3527 $x6956)))))))))))
(assert
 (let (($x5423 (= cell_3_9 9)))
 (let (($x5990 (= cell_3_9 8)))
 (let (($x6584 (= cell_3_9 7)))
 (let (($x5569 (= cell_3_9 6)))
 (let (($x4337 (= cell_3_9 5)))
 (let (($x2178 (= cell_3_9 4)))
 (let (($x1407 (= cell_3_9 3)))
 (let (($x8283 (= cell_3_9 2)))
 (let (($x6353 (= cell_3_9 1)))
 (or $x6353 $x8283 $x1407 $x2178 $x4337 $x5569 $x6584 $x5990 $x5423)))))))))))
(assert
 (let (($x4280 (= cell_4_9 9)))
 (let (($x9366 (= cell_4_9 8)))
 (let (($x1594 (= cell_4_9 7)))
 (let (($x1280 (= cell_4_9 6)))
 (let (($x1220 (= cell_4_9 5)))
 (let (($x8739 (= cell_4_9 4)))
 (let (($x5074 (= cell_4_9 3)))
 (let (($x633 (= cell_4_9 2)))
 (let (($x6608 (= cell_4_9 1)))
 (or $x6608 $x633 $x5074 $x8739 $x1220 $x1280 $x1594 $x9366 $x4280)))))))))))
(assert
 (let (($x2956 (= cell_5_9 9)))
 (let (($x5376 (= cell_5_9 8)))
 (let (($x969 (= cell_5_9 7)))
 (let (($x4510 (= cell_5_9 6)))
 (let (($x7859 (= cell_5_9 5)))
 (let (($x3405 (= cell_5_9 4)))
 (let (($x361 (= cell_5_9 3)))
 (let (($x9587 (= cell_5_9 2)))
 (let (($x8098 (= cell_5_9 1)))
 (or $x8098 $x9587 $x361 $x3405 $x7859 $x4510 $x969 $x5376 $x2956)))))))))))
(assert
 (let (($x7621 (= cell_6_9 9)))
 (let (($x1415 (= cell_6_9 8)))
 (let (($x4029 (= cell_6_9 7)))
 (let (($x6652 (= cell_6_9 6)))
 (let (($x2138 (= cell_6_9 5)))
 (let (($x295 (= cell_6_9 4)))
 (let (($x588 (= cell_6_9 3)))
 (let (($x6205 (= cell_6_9 2)))
 (let (($x6773 (= cell_6_9 1)))
 (or $x6773 $x6205 $x588 $x295 $x2138 $x6652 $x4029 $x1415 $x7621)))))))))))
(assert
 (let (($x9612 (= cell_7_9 1)))
 (or $x9612 (= cell_7_9 2) (= cell_7_9 3) (= cell_7_9 4) (= cell_7_9 5) (= cell_7_9 6) (= cell_7_9 7) (= cell_7_9 8) (= cell_7_9 9))))
(assert
 (let (($x5743 (= cell_8_9 1)))
 (or $x5743 (= cell_8_9 2) (= cell_8_9 3) (= cell_8_9 4) (= cell_8_9 5) (= cell_8_9 6) (= cell_8_9 7) (= cell_8_9 8) (= cell_8_9 9))))
(assert
 (let (($x9853 (= cell_9_9 1)))
 (or $x9853 (= cell_9_9 2) (= cell_9_9 3) (= cell_9_9 4) (= cell_9_9 5) (= cell_9_9 6) (= cell_9_9 7) (= cell_9_9 8) (= cell_9_9 9))))
(assert
 (and (distinct cell_1_1 cell_1_2 cell_1_3 cell_1_4 cell_1_5 cell_1_6 cell_1_7 cell_1_8 cell_1_9) true))
(assert
 (and (distinct cell_2_1 cell_2_2 cell_2_3 cell_2_4 cell_2_5 cell_2_6 cell_2_7 cell_2_8 cell_2_9) true))
(assert
 (and (distinct cell_3_1 cell_3_2 cell_3_3 cell_3_4 cell_3_5 cell_3_6 cell_3_7 cell_3_8 cell_3_9) true))
(assert
 (and (distinct cell_4_1 cell_4_2 cell_4_3 cell_4_4 cell_4_5 cell_4_6 cell_4_7 cell_4_8 cell_4_9) true))
(assert
 (and (distinct cell_5_1 cell_5_2 cell_5_3 cell_5_4 cell_5_5 cell_5_6 cell_5_7 cell_5_8 cell_5_9) true))
(assert
 (and (distinct cell_6_1 cell_6_2 cell_6_3 cell_6_4 cell_6_5 cell_6_6 cell_6_7 cell_6_8 cell_6_9) true))
(assert
 (and (distinct cell_7_1 cell_7_2 cell_7_3 cell_7_4 cell_7_5 cell_7_6 cell_7_7 cell_7_8 cell_7_9) true))
(assert
 (and (distinct cell_8_1 cell_8_2 cell_8_3 cell_8_4 cell_8_5 cell_8_6 cell_8_7 cell_8_8 cell_8_9) true))
(assert
 (and (distinct cell_9_1 cell_9_2 cell_9_3 cell_9_4 cell_9_5 cell_9_6 cell_9_7 cell_9_8 cell_9_9) true))
(assert
 (and (distinct cell_1_1 cell_2_1 cell_3_1 cell_4_1 cell_5_1 cell_6_1 cell_7_1 cell_8_1 cell_9_1) true))
(assert
 (and (distinct cell_1_2 cell_2_2 cell_3_2 cell_4_2 cell_5_2 cell_6_2 cell_7_2 cell_8_2 cell_9_2) true))
(assert
 (and (distinct cell_1_3 cell_2_3 cell_3_3 cell_4_3 cell_5_3 cell_6_3 cell_7_3 cell_8_3 cell_9_3) true))
(assert
 (and (distinct cell_1_4 cell_2_4 cell_3_4 cell_4_4 cell_5_4 cell_6_4 cell_7_4 cell_8_4 cell_9_4) true))
(assert
 (and (distinct cell_1_5 cell_2_5 cell_3_5 cell_4_5 cell_5_5 cell_6_5 cell_7_5 cell_8_5 cell_9_5) true))
(assert
 (and (distinct cell_1_6 cell_2_6 cell_3_6 cell_4_6 cell_5_6 cell_6_6 cell_7_6 cell_8_6 cell_9_6) true))
(assert
 (and (distinct cell_1_7 cell_2_7 cell_3_7 cell_4_7 cell_5_7 cell_6_7 cell_7_7 cell_8_7 cell_9_7) true))
(assert
 (and (distinct cell_1_8 cell_2_8 cell_3_8 cell_4_8 cell_5_8 cell_6_8 cell_7_8 cell_8_8 cell_9_8) true))
(assert
 (and (distinct cell_1_9 cell_2_9 cell_3_9 cell_4_9 cell_5_9 cell_6_9 cell_7_9 cell_8_9 cell_9_9) true))
(assert
 (and (distinct cell_1_1 cell_1_2 cell_1_3 cell_2_1 cell_2_2 cell_2_3 cell_3_1 cell_3_2 cell_3_3) true))
(assert
 (and (distinct cell_1_4 cell_1_5 cell_1_6 cell_2_4 cell_2_5 cell_2_6 cell_3_4 cell_3_5 cell_3_6) true))
(assert
 (and (distinct cell_1_7 cell_1_8 cell_1_9 cell_2_7 cell_2_8 cell_2_9 cell_3_7 cell_3_8 cell_3_9) true))
(assert
 (and (distinct cell_4_1 cell_4_2 cell_4_3 cell_5_1 cell_5_2 cell_5_3 cell_6_1 cell_6_2 cell_6_3) true))
(assert
 (and (distinct cell_4_4 cell_4_5 cell_4_6 cell_5_4 cell_5_5 cell_5_6 cell_6_4 cell_6_5 cell_6_6) true))
(assert
 (and (distinct cell_4_7 cell_4_8 cell_4_9 cell_5_7 cell_5_8 cell_5_9 cell_6_7 cell_6_8 cell_6_9) true))
(assert
 (and (distinct cell_7_1 cell_7_2 cell_7_3 cell_8_1 cell_8_2 cell_8_3 cell_9_1 cell_9_2 cell_9_3) true))
(assert
 (and (distinct cell_7_4 cell_7_5 cell_7_6 cell_8_4 cell_8_5 cell_8_6 cell_9_4 cell_9_5 cell_9_6) true))
(assert
 (and (distinct cell_7_7 cell_7_8 cell_7_9 cell_8_7 cell_8_8 cell_8_9 cell_9_7 cell_9_8 cell_9_9) true))
(assert
 (let (($x9922 (and (distinct cell_5_9 cell_6_8 cell_7_7 cell_8_6) true)))
 (let (($x9985 (and (distinct cell_2_9 cell_3_8 cell_4_7 cell_5_6 cell_6_5 cell_7_4 cell_8_3 cell_9_2) true)))
 (let (($x3189 (and (distinct cell_1_8 cell_2_7 cell_3_6 cell_4_5 cell_5_4 cell_6_3 cell_7_2 cell_8_1) true)))
 (let (($x7870 (and (distinct cell_1_5 cell_2_4 cell_3_3 cell_4_2) true)))
 (let (($x9548 (and (distinct cell_5_1 cell_6_2 cell_7_3 cell_8_4) true)))
 (let (($x971 (and (distinct cell_2_1 cell_3_2 cell_4_3 cell_5_4 cell_6_5 cell_7_6 cell_8_7 cell_9_8) true)))
 (let (($x5138 (and (distinct cell_1_2 cell_2_3 cell_3_4 cell_4_5 cell_5_6 cell_6_7 cell_7_8 cell_8_9) true)))
 (let (($x4068 (and (distinct cell_1_5 cell_2_6 cell_3_7 cell_4_8) true)))
 (and $x4068 $x5138 $x971 $x9548 $x7870 $x3189 $x9985 $x9922))))))))))
(assert
 (= cell_3_8 2))
(check-sat)
